decision_x1=[0,2];
decision_x2=[0,2];
decision_x3=[0,2];
decision_x4=[0,2];
decision_x5=[0,2];
decision_x6=[0,2];
decision_x7=[0,2];
decision_x8=[0,2];
decision_x9=[0,2];
decision_x10=[0,2];
decision_x11=[0,2];
decision_x12=[0,2];
random_y1=[0,2];
random_y2=[0,2];
random_y3=[0,2];
constraint_x2_x1=[
0,0,1.3|
0,1,9.7|
0,2,0.92|
1,0,7.6|
1,1,7.1|
1,2,4.9|
2,0,3.2|
2,1,7.3|
2,2,0.97|
];
constraint_x3_x1=[
0,0,5.3|
0,1,3.6|
0,2,9.5|
1,0,8.9|
1,1,5.4|
1,2,1.8|
2,0,9.6|
2,1,0.61|
2,2,7|
];
constraint_x4_x1=[
0,0,6.6|
0,1,8|
0,2,9.5|
1,0,7.3|
1,1,2.3|
1,2,1.9|
2,0,1.1|
2,1,9.2|
2,2,6|
];
constraint_x4_x2=[
0,0,3.3|
0,1,8.9|
0,2,3.2|
1,0,9.5|
1,1,8.6|
1,2,4.7|
2,0,5.6|
2,1,2.1|
2,2,9.4|
];
constraint_x5_x1=[
0,0,1.3|
0,1,9.6|
0,2,1.5|
1,0,4.1|
1,1,4.9|
1,2,7.3|
2,0,5.6|
2,1,0.72|
2,2,2.9|
];
constraint_x5_x2=[
0,0,4.5|
0,1,0.11|
0,2,7.5|
1,0,3.3|
1,1,8.7|
1,2,5.2|
2,0,0.23|
2,1,7.3|
2,2,0.24|
];
constraint_x5_x3=[
0,0,0.73|
0,1,3.7|
0,2,1.8|
1,0,8.2|
1,1,2.2|
1,2,6.6|
2,0,5|
2,1,2.2|
2,2,9.2|
];
constraint_x5_x4=[
0,0,3|
0,1,4.8|
0,2,8.8|
1,0,2|
1,1,8.3|
1,2,1.5|
2,0,4.6|
2,1,3.9|
2,2,2.2|
];
constraint_x6_x2=[
0,0,9|
0,1,8.8|
0,2,1.5|
1,0,8.1|
1,1,7.8|
1,2,3.8|
2,0,6.5|
2,1,3.5|
2,2,6.9|
];
constraint_x6_x4=[
0,0,1.7|
0,1,5.6|
0,2,7.1|
1,0,2.4|
1,1,1|
1,2,5.6|
2,0,7.9|
2,1,5.2|
2,2,8.6|
];
constraint_x6_x5=[
0,0,1.9|
0,1,5.8|
0,2,1|
1,0,7.1|
1,1,5|
1,2,1.1|
2,0,0.47|
2,1,5|
2,2,9.7|
];
constraint_x7_x2=[
0,0,2.6|
0,1,4|
0,2,2.4|
1,0,3.4|
1,1,0.81|
1,2,8.1|
2,0,2|
2,1,0.3|
2,2,6.1|
];
constraint_x7_x4=[
0,0,4.4|
0,1,3|
0,2,4.6|
1,0,2.4|
1,1,7.7|
1,2,3.9|
2,0,7.1|
2,1,2.4|
2,2,4.7|
];
constraint_x7_x6=[
0,0,9.7|
0,1,7.6|
0,2,9.9|
1,0,8.9|
1,1,3.5|
1,2,9|
2,0,6.9|
2,1,4.1|
2,2,5.2|
];
constraint_x8_x2=[
0,0,2.3|
0,1,4.5|
0,2,8.2|
1,0,4.4|
1,1,6.7|
1,2,5.5|
2,0,0.78|
2,1,0.24|
2,2,5.2|
];
constraint_x8_x6=[
0,0,4.9|
0,1,2.3|
0,2,4.6|
1,0,7.8|
1,1,2.4|
1,2,8.9|
2,0,9.9|
2,1,1.9|
2,2,0.83|
];
constraint_x8_x7=[
0,0,6.4|
0,1,2.7|
0,2,4|
1,0,3.3|
1,1,8.9|
1,2,7.6|
2,0,3.2|
2,1,6.1|
2,2,7.1|
];
constraint_x9_x1=[
0,0,9.1|
0,1,9.4|
0,2,1.5|
1,0,6.8|
1,1,6.4|
1,2,5.5|
2,0,9|
2,1,0.62|
2,2,8.2|
];
constraint_x9_x2=[
0,0,1.1|
0,1,7.8|
0,2,0.86|
1,0,6.8|
1,1,6.5|
1,2,4.5|
2,0,4.3|
2,1,9.7|
2,2,6.8|
];
constraint_x9_x7=[
0,0,8|
0,1,9.4|
0,2,9.1|
1,0,8.9|
1,1,8.2|
1,2,4.7|
2,0,8.1|
2,1,5.6|
2,2,3.7|
];
constraint_x10_x1=[
0,0,8.4|
0,1,5.7|
0,2,3.8|
1,0,5.9|
1,1,2.7|
1,2,4.8|
2,0,3.9|
2,1,0.44|
2,2,8.3|
];
constraint_x10_x6=[
0,0,3.1|
0,1,3|
0,2,4.2|
1,0,3|
1,1,5.8|
1,2,3|
2,0,9.7|
2,1,2.8|
2,2,1.1|
];
constraint_x10_x8=[
0,0,2.1|
0,1,9.2|
0,2,1.5|
1,0,5.7|
1,1,3.1|
1,2,4.6|
2,0,1.9|
2,1,8|
2,2,6.6|
];
constraint_x11_x5=[
0,0,5.8|
0,1,1.8|
0,2,3.4|
1,0,1.1|
1,1,7.4|
1,2,3.9|
2,0,5.2|
2,1,0.28|
2,2,7.2|
];
constraint_x11_x10=[
0,0,0.53|
0,1,2.7|
0,2,1.9|
1,0,9.5|
1,1,9|
1,2,1.3|
2,0,4.4|
2,1,6.2|
2,2,6.2|
];
constraint_x12_x2=[
0,0,8.6|
0,1,7.7|
0,2,6.6|
1,0,4.5|
1,1,7.6|
1,2,7.2|
2,0,2.2|
2,1,9.2|
2,2,0.77|
];
constraint_x12_x3=[
0,0,9|
0,1,6.8|
0,2,9.5|
1,0,4.2|
1,1,0.27|
1,2,1.4|
2,0,7|
2,1,0.049|
2,2,6.2|
];
constraint_x12_x4=[
0,0,0.91|
0,1,0.95|
0,2,1.4|
1,0,9.2|
1,1,8.3|
1,2,5.6|
2,0,5.9|
2,1,1.5|
2,2,9.8|
];
constraint_x12_x5=[
0,0,0.74|
0,1,7.7|
0,2,5.1|
1,0,4.3|
1,1,2.2|
1,2,5.2|
2,0,1.4|
2,1,1.3|
2,2,5.1|
];
constraint_x12_x7=[
0,0,7.5|
0,1,1.2|
0,2,8.6|
1,0,8.8|
1,1,9.5|
1,2,5.5|
2,0,4.8|
2,1,2|
2,2,9.9|
];
constraint_x12_x8=[
0,0,5.6|
0,1,7.6|
0,2,6.6|
1,0,8.1|
1,1,7.5|
1,2,6|
2,0,5|
2,1,9.1|
2,2,5.5|
];
constraint_x12_x9=[
0,0,1.4|
0,1,3.4|
0,2,3.3|
1,0,0.05|
1,1,4.3|
1,2,2.9|
2,0,8.8|
2,1,2.2|
2,2,2.7|
];
constraint_x12_x11=[
0,0,2.4|
0,1,7.1|
0,2,8.9|
1,0,2.6|
1,1,3.4|
1,2,6.3|
2,0,0.96|
2,1,5.9|
2,2,10|
];
constraint_x1_y1=[
0,0,7.2|
0,1,6.6|
0,2,7|
1,0,2.5|
1,1,8.6|
1,2,0.11|
2,0,5.4|
2,1,5.2|
2,2,0.61|
];
constraint_x2_y2=[
0,0,8.7|
0,1,5.4|
0,2,5.3|
1,0,4.6|
1,1,9.5|
1,2,0.084|
2,0,4.7|
2,1,3.5|
2,2,5.6|
];
constraint_x3_y3=[
0,0,5.4|
0,1,0.56|
0,2,6.1|
1,0,0.24|
1,1,2.4|
1,2,7.7|
2,0,5.7|
2,1,5.2|
2,2,2.9|
];
initial_distribution_y1=[0.28,0.5,0.23];
initial_distribution_y2=[0.44,0.099,0.46];
initial_distribution_y3=[0.3,0.29,0.41];
transition_y1=[
0.3,0.24,0.46|
0.53,0.25,0.22|
0.53,0.009,0.46|
];
transition_y2=[
0.22,0.47,0.31|
0.083,0.58,0.34|
0.3,0.098,0.6|
];
transition_y3=[
0.84,0.074,0.084|
0.43,0.25,0.33|
0.22,0.38,0.41|
];
